VACCINE = Vaccine(1..2);
m = 24;
age = [BABY, ADULT, YOUTH, ADULT, CHILD, YOUTH, AGED, AGED, AGED, YOUTH, YOUTH, YOUTH, ANCIENT, AGED, AGED, YOUTH, CHILD, BABY, AGED, SENIOR, SENIOR, CHILD, ANCIENT, ANCIENT];
gender = [MALE, FEMALE, MALE, FEMALE, MALE, MALE, MALE, FEMALE, MALE, FEMALE, FEMALE, OTHER, OTHER, OTHER, MALE, MALE, OTHER, MALE, OTHER, FEMALE, FEMALE, FEMALE, OTHER, OTHER];
health = [POOR, POOR, COMPROMISED, POOR, COMPROMISED, COMPROMISED, COMPROMISED, COMPROMISED, GOOD, COMPROMISED, POOR, COMPROMISED, GOOD, COMPROMISED, COMPROMISED, GOOD, GOOD, POOR, GOOD, COMPROMISED, COMPROMISED, POOR, GOOD, GOOD];
exposure = [EXTREME, AVERAGE, AVERAGE, AVERAGE, HIGH, LOW, AVERAGE, LOW, EXTREME, LOW, LOW, EXTREME, HIGH, AVERAGE, HIGH, EXTREME, AVERAGE, HIGH, HIGH, LOW, AVERAGE, EXTREME, AVERAGE, AVERAGE];
size = [5, 8, 4, 4, 8, 7, 8, 4, 6, 5, 6, 5, 7, 9, 4, 7, 9, 7, 5, 4, 7, 4, 6, 8];
minsize = 4;
age_group_min = [0, 1, 0, 0, 1, 0, 0];
age_group_max = [17, 23, 11, 13, 14, 23, 23];
max_people_diff = 47;
max_share_vaccines = 2;
health_information = {5, 9, 24};
exposure_information = {7, 15, 18, 20};